33314
33890
4655
4995
85192
17797
50
55189
4641
123982
266
207
96
2689
2227
54547
9239
17602
357
9271
4415
9666
405
5108
87227
82
1003
7924
6014
1851
1007
1305
1014
9613
2024
5500
231
8667
33083
839
4330
206
30940
4424
1137
921
5085
124429
123090
8514
10263
2446
2112
35781
4709
8250
88
2365
19189
86623
18196
10467
1929
8980
103
4004
55745
4552
17572
55499
123837
32728
194
4210
80
87805
4400
57
18627
10050
35219
55225
248
17978
4916
31974
54878
42
5883
535
355
85689
57544
56663
216
4588
20153
472
812
63
